\ Model p-center Problem
\ LP format - for model browsing. Use MPS format to capture full model detail.
Minimize
  Omega
Subject To
 Num_limit: Select[0] + Select[1] + Select[2] + Select[3] + Select[4]
   + Select[5] + Select[6] + Select[7] + Select[8] + Select[9] = 2
 Assign_before_locate[0,0]: - Select[0] + Assign[0,0] <= 0
 Assign_before_locate[0,1]: - Select[1] + Assign[0,1] <= 0
 Assign_before_locate[0,2]: - Select[2] + Assign[0,2] <= 0
 Assign_before_locate[0,3]: - Select[3] + Assign[0,3] <= 0
 Assign_before_locate[0,4]: - Select[4] + Assign[0,4] <= 0
 Assign_before_locate[0,5]: - Select[5] + Assign[0,5] <= 0
 Assign_before_locate[0,6]: - Select[6] + Assign[0,6] <= 0
 Assign_before_locate[0,7]: - Select[7] + Assign[0,7] <= 0
 Assign_before_locate[0,8]: - Select[8] + Assign[0,8] <= 0
 Assign_before_locate[0,9]: - Select[9] + Assign[0,9] <= 0
 Assign_before_locate[1,0]: - Select[0] + Assign[1,0] <= 0
 Assign_before_locate[1,1]: - Select[1] + Assign[1,1] <= 0
 Assign_before_locate[1,2]: - Select[2] + Assign[1,2] <= 0
 Assign_before_locate[1,3]: - Select[3] + Assign[1,3] <= 0
 Assign_before_locate[1,4]: - Select[4] + Assign[1,4] <= 0
 Assign_before_locate[1,5]: - Select[5] + Assign[1,5] <= 0
 Assign_before_locate[1,6]: - Select[6] + Assign[1,6] <= 0
 Assign_before_locate[1,7]: - Select[7] + Assign[1,7] <= 0
 Assign_before_locate[1,8]: - Select[8] + Assign[1,8] <= 0
 Assign_before_locate[1,9]: - Select[9] + Assign[1,9] <= 0
 Assign_before_locate[2,0]: - Select[0] + Assign[2,0] <= 0
 Assign_before_locate[2,1]: - Select[1] + Assign[2,1] <= 0
 Assign_before_locate[2,2]: - Select[2] + Assign[2,2] <= 0
 Assign_before_locate[2,3]: - Select[3] + Assign[2,3] <= 0
 Assign_before_locate[2,4]: - Select[4] + Assign[2,4] <= 0
 Assign_before_locate[2,5]: - Select[5] + Assign[2,5] <= 0
 Assign_before_locate[2,6]: - Select[6] + Assign[2,6] <= 0
 Assign_before_locate[2,7]: - Select[7] + Assign[2,7] <= 0
 Assign_before_locate[2,8]: - Select[8] + Assign[2,8] <= 0
 Assign_before_locate[2,9]: - Select[9] + Assign[2,9] <= 0
 Assign_before_locate[3,0]: - Select[0] + Assign[3,0] <= 0
 Assign_before_locate[3,1]: - Select[1] + Assign[3,1] <= 0
 Assign_before_locate[3,2]: - Select[2] + Assign[3,2] <= 0
 Assign_before_locate[3,3]: - Select[3] + Assign[3,3] <= 0
 Assign_before_locate[3,4]: - Select[4] + Assign[3,4] <= 0
 Assign_before_locate[3,5]: - Select[5] + Assign[3,5] <= 0
 Assign_before_locate[3,6]: - Select[6] + Assign[3,6] <= 0
 Assign_before_locate[3,7]: - Select[7] + Assign[3,7] <= 0
 Assign_before_locate[3,8]: - Select[8] + Assign[3,8] <= 0
 Assign_before_locate[3,9]: - Select[9] + Assign[3,9] <= 0
 Assign_before_locate[4,0]: - Select[0] + Assign[4,0] <= 0
 Assign_before_locate[4,1]: - Select[1] + Assign[4,1] <= 0
 Assign_before_locate[4,2]: - Select[2] + Assign[4,2] <= 0
 Assign_before_locate[4,3]: - Select[3] + Assign[4,3] <= 0
 Assign_before_locate[4,4]: - Select[4] + Assign[4,4] <= 0
 Assign_before_locate[4,5]: - Select[5] + Assign[4,5] <= 0
 Assign_before_locate[4,6]: - Select[6] + Assign[4,6] <= 0
 Assign_before_locate[4,7]: - Select[7] + Assign[4,7] <= 0
 Assign_before_locate[4,8]: - Select[8] + Assign[4,8] <= 0
 Assign_before_locate[4,9]: - Select[9] + Assign[4,9] <= 0
 Assign_before_locate[5,0]: - Select[0] + Assign[5,0] <= 0
 Assign_before_locate[5,1]: - Select[1] + Assign[5,1] <= 0
 Assign_before_locate[5,2]: - Select[2] + Assign[5,2] <= 0
 Assign_before_locate[5,3]: - Select[3] + Assign[5,3] <= 0
 Assign_before_locate[5,4]: - Select[4] + Assign[5,4] <= 0
 Assign_before_locate[5,5]: - Select[5] + Assign[5,5] <= 0
 Assign_before_locate[5,6]: - Select[6] + Assign[5,6] <= 0
 Assign_before_locate[5,7]: - Select[7] + Assign[5,7] <= 0
 Assign_before_locate[5,8]: - Select[8] + Assign[5,8] <= 0
 Assign_before_locate[5,9]: - Select[9] + Assign[5,9] <= 0
 Assign_before_locate[6,0]: - Select[0] + Assign[6,0] <= 0
 Assign_before_locate[6,1]: - Select[1] + Assign[6,1] <= 0
 Assign_before_locate[6,2]: - Select[2] + Assign[6,2] <= 0
 Assign_before_locate[6,3]: - Select[3] + Assign[6,3] <= 0
 Assign_before_locate[6,4]: - Select[4] + Assign[6,4] <= 0
 Assign_before_locate[6,5]: - Select[5] + Assign[6,5] <= 0
 Assign_before_locate[6,6]: - Select[6] + Assign[6,6] <= 0
 Assign_before_locate[6,7]: - Select[7] + Assign[6,7] <= 0
 Assign_before_locate[6,8]: - Select[8] + Assign[6,8] <= 0
 Assign_before_locate[6,9]: - Select[9] + Assign[6,9] <= 0
 Assign_before_locate[7,0]: - Select[0] + Assign[7,0] <= 0
 Assign_before_locate[7,1]: - Select[1] + Assign[7,1] <= 0
 Assign_before_locate[7,2]: - Select[2] + Assign[7,2] <= 0
 Assign_before_locate[7,3]: - Select[3] + Assign[7,3] <= 0
 Assign_before_locate[7,4]: - Select[4] + Assign[7,4] <= 0
 Assign_before_locate[7,5]: - Select[5] + Assign[7,5] <= 0
 Assign_before_locate[7,6]: - Select[6] + Assign[7,6] <= 0
 Assign_before_locate[7,7]: - Select[7] + Assign[7,7] <= 0
 Assign_before_locate[7,8]: - Select[8] + Assign[7,8] <= 0
 Assign_before_locate[7,9]: - Select[9] + Assign[7,9] <= 0
 Assign_before_locate[8,0]: - Select[0] + Assign[8,0] <= 0
 Assign_before_locate[8,1]: - Select[1] + Assign[8,1] <= 0
 Assign_before_locate[8,2]: - Select[2] + Assign[8,2] <= 0
 Assign_before_locate[8,3]: - Select[3] + Assign[8,3] <= 0
 Assign_before_locate[8,4]: - Select[4] + Assign[8,4] <= 0
 Assign_before_locate[8,5]: - Select[5] + Assign[8,5] <= 0
 Assign_before_locate[8,6]: - Select[6] + Assign[8,6] <= 0
 Assign_before_locate[8,7]: - Select[7] + Assign[8,7] <= 0
 Assign_before_locate[8,8]: - Select[8] + Assign[8,8] <= 0
 Assign_before_locate[8,9]: - Select[9] + Assign[8,9] <= 0
 Assign_before_locate[9,0]: - Select[0] + Assign[9,0] <= 0
 Assign_before_locate[9,1]: - Select[1] + Assign[9,1] <= 0
 Assign_before_locate[9,2]: - Select[2] + Assign[9,2] <= 0
 Assign_before_locate[9,3]: - Select[3] + Assign[9,3] <= 0
 Assign_before_locate[9,4]: - Select[4] + Assign[9,4] <= 0
 Assign_before_locate[9,5]: - Select[5] + Assign[9,5] <= 0
 Assign_before_locate[9,6]: - Select[6] + Assign[9,6] <= 0
 Assign_before_locate[9,7]: - Select[7] + Assign[9,7] <= 0
 Assign_before_locate[9,8]: - Select[8] + Assign[9,8] <= 0
 Assign_before_locate[9,9]: - Select[9] + Assign[9,9] <= 0
 Unique_assign[0]: Assign[0,0] + Assign[0,1] + Assign[0,2] + Assign[0,3]
   + Assign[0,4] + Assign[0,5] + Assign[0,6] + Assign[0,7] + Assign[0,8]
   + Assign[0,9] = 1
 Unique_assign[1]: Assign[1,0] + Assign[1,1] + Assign[1,2] + Assign[1,3]
   + Assign[1,4] + Assign[1,5] + Assign[1,6] + Assign[1,7] + Assign[1,8]
   + Assign[1,9] = 1
 Unique_assign[2]: Assign[2,0] + Assign[2,1] + Assign[2,2] + Assign[2,3]
   + Assign[2,4] + Assign[2,5] + Assign[2,6] + Assign[2,7] + Assign[2,8]
   + Assign[2,9] = 1
 Unique_assign[3]: Assign[3,0] + Assign[3,1] + Assign[3,2] + Assign[3,3]
   + Assign[3,4] + Assign[3,5] + Assign[3,6] + Assign[3,7] + Assign[3,8]
   + Assign[3,9] = 1
 Unique_assign[4]: Assign[4,0] + Assign[4,1] + Assign[4,2] + Assign[4,3]
   + Assign[4,4] + Assign[4,5] + Assign[4,6] + Assign[4,7] + Assign[4,8]
   + Assign[4,9] = 1
 Unique_assign[5]: Assign[5,0] + Assign[5,1] + Assign[5,2] + Assign[5,3]
   + Assign[5,4] + Assign[5,5] + Assign[5,6] + Assign[5,7] + Assign[5,8]
   + Assign[5,9] = 1
 Unique_assign[6]: Assign[6,0] + Assign[6,1] + Assign[6,2] + Assign[6,3]
   + Assign[6,4] + Assign[6,5] + Assign[6,6] + Assign[6,7] + Assign[6,8]
   + Assign[6,9] = 1
 Unique_assign[7]: Assign[7,0] + Assign[7,1] + Assign[7,2] + Assign[7,3]
   + Assign[7,4] + Assign[7,5] + Assign[7,6] + Assign[7,7] + Assign[7,8]
   + Assign[7,9] = 1
 Unique_assign[8]: Assign[8,0] + Assign[8,1] + Assign[8,2] + Assign[8,3]
   + Assign[8,4] + Assign[8,5] + Assign[8,6] + Assign[8,7] + Assign[8,8]
   + Assign[8,9] = 1
 Unique_assign[9]: Assign[9,0] + Assign[9,1] + Assign[9,2] + Assign[9,3]
   + Assign[9,4] + Assign[9,5] + Assign[9,6] + Assign[9,7] + Assign[9,8]
   + Assign[9,9] = 1
 Min_distance: 0.6547424155553965 Assign[0,1]
   + 0.4853970726920619 Assign[0,2] + 0.4586657108333779 Assign[0,3]
   + 0.407149438437615 Assign[0,4] + 0.2611532082813577 Assign[0,5]
   + 0.5625881161453877 Assign[0,6] + 0.5555208622408672 Assign[0,7]
   + 0.2341287877343663 Assign[0,8] + 0.1482124359005911 Assign[0,9]
   + 0.6547424155553965 Assign[1,0] + 0.1718957156409147 Assign[1,2]
   + 0.3659301328870909 Assign[1,3] + 0.329266710019156 Assign[1,4]
   + 0.545984860807437 Assign[1,5] + 0.515891646987866 Assign[1,6]
   + 0.1979761417270662 Assign[1,7] + 0.8736577103803393 Assign[1,8]
   + 0.752059352763336 Assign[1,9] + 0.4853970726920619 Assign[2,0]
   + 0.1718957156409147 Assign[2,1] + 0.2908542069437158 Assign[2,3]
   + 0.1817861415756272 Assign[2,4] + 0.4091834956238695 Assign[2,5]
   + 0.4192267694507179 Assign[2,6] + 0.1879285183468997 Assign[2,7]
   + 0.7019200334747892 Assign[2,8] + 0.5801776477085239 Assign[2,9]
   + 0.4586657108333779 Assign[3,0] + 0.3659301328870909 Assign[3,1]
   + 0.2908542069437158 Assign[3,2] + 0.4157062241167336 Assign[3,4]
   + 0.2366549901392728 Assign[3,5] + 0.6758055392552462 Assign[3,6]
   + 0.1736532876021541 Assign[3,7] + 0.6910470553749988 Assign[3,8]
   + 0.5994356756437228 Assign[3,9] + 0.407149438437615 Assign[4,0]
   + 0.329266710019156 Assign[4,1] + 0.1817861415756272 Assign[4,2]
   + 0.4157062241167336 Assign[4,3] + 0.438633025058136 Assign[4,5]
   + 0.2601163464917874 Assign[4,6] + 0.3618087097096558 Assign[4,7]
   + 0.5891870864314632 Assign[4,8] + 0.4614387005447554 Assign[4,9]
   + 0.2611532082813577 Assign[5,0] + 0.545984860807437 Assign[5,1]
   + 0.4091834956238695 Assign[5,2] + 0.2366549901392728 Assign[5,3]
   + 0.438633025058136 Assign[5,4] + 0.6747446549331081 Assign[5,6]
   + 0.3854338527727879 Assign[5,7] + 0.4781014103269314 Assign[5,8]
   + 0.4093570431710217 Assign[5,9] + 0.5625881161453877 Assign[6,0]
   + 0.515891646987866 Assign[6,1] + 0.4192267694507179 Assign[6,2]
   + 0.6758055392552462 Assign[6,3] + 0.2601163464917874 Assign[6,4]
   + 0.6747446549331081 Assign[6,5] + 0.6071071953098048 Assign[6,7]
   + 0.6676746746005719 Assign[6,8] + 0.5482759726990749 Assign[6,9]
   + 0.5555208622408672 Assign[7,0] + 0.1979761417270662 Assign[7,1]
   + 0.1879285183468997 Assign[7,2] + 0.1736532876021541 Assign[7,3]
   + 0.3618087097096558 Assign[7,4] + 0.3854338527727879 Assign[7,5]
   + 0.6071071953098048 Assign[7,6] + 0.7881201928092725 Assign[7,8]
   + 0.6793128830172739 Assign[7,9] + 0.2341287877343663 Assign[8,0]
   + 0.8736577103803393 Assign[8,1] + 0.7019200334747892 Assign[8,2]
   + 0.6910470553749988 Assign[8,3] + 0.5891870864314632 Assign[8,4]
   + 0.4781014103269314 Assign[8,5] + 0.6676746746005719 Assign[8,6]
   + 0.7881201928092725 Assign[8,7] + 0.1280840884894573 Assign[8,9]
   + 0.1482124359005911 Assign[9,0] + 0.752059352763336 Assign[9,1]
   + 0.5801776477085239 Assign[9,2] + 0.5994356756437228 Assign[9,3]
   + 0.4614387005447554 Assign[9,4] + 0.4093570431710217 Assign[9,5]
   + 0.5482759726990749 Assign[9,6] + 0.6793128830172739 Assign[9,7]
   + 0.1280840884894573 Assign[9,8] - Omega <= 0
Bounds
Binaries
 Select[0] Select[1] Select[2] Select[3] Select[4] Select[5] Select[6]
 Select[7] Select[8] Select[9] Assign[0,0] Assign[0,1] Assign[0,2]
 Assign[0,3] Assign[0,4] Assign[0,5] Assign[0,6] Assign[0,7] Assign[0,8]
 Assign[0,9] Assign[1,0] Assign[1,1] Assign[1,2] Assign[1,3] Assign[1,4]
 Assign[1,5] Assign[1,6] Assign[1,7] Assign[1,8] Assign[1,9] Assign[2,0]
 Assign[2,1] Assign[2,2] Assign[2,3] Assign[2,4] Assign[2,5] Assign[2,6]
 Assign[2,7] Assign[2,8] Assign[2,9] Assign[3,0] Assign[3,1] Assign[3,2]
 Assign[3,3] Assign[3,4] Assign[3,5] Assign[3,6] Assign[3,7] Assign[3,8]
 Assign[3,9] Assign[4,0] Assign[4,1] Assign[4,2] Assign[4,3] Assign[4,4]
 Assign[4,5] Assign[4,6] Assign[4,7] Assign[4,8] Assign[4,9] Assign[5,0]
 Assign[5,1] Assign[5,2] Assign[5,3] Assign[5,4] Assign[5,5] Assign[5,6]
 Assign[5,7] Assign[5,8] Assign[5,9] Assign[6,0] Assign[6,1] Assign[6,2]
 Assign[6,3] Assign[6,4] Assign[6,5] Assign[6,6] Assign[6,7] Assign[6,8]
 Assign[6,9] Assign[7,0] Assign[7,1] Assign[7,2] Assign[7,3] Assign[7,4]
 Assign[7,5] Assign[7,6] Assign[7,7] Assign[7,8] Assign[7,9] Assign[8,0]
 Assign[8,1] Assign[8,2] Assign[8,3] Assign[8,4] Assign[8,5] Assign[8,6]
 Assign[8,7] Assign[8,8] Assign[8,9] Assign[9,0] Assign[9,1] Assign[9,2]
 Assign[9,3] Assign[9,4] Assign[9,5] Assign[9,6] Assign[9,7] Assign[9,8]
 Assign[9,9]
End
